
Gurobi 11.0.3 (linux64) logging started Mon Aug 25 14:21:52 2025

Set parameter LogFile to value "/home/yihong/Coding/OR_SUC/SUC_epstheta_results_bigM100000_thread4/case24_ieee_rts_theta0.1_epsilon0.1_gurobi_seed40000_num_gen100_N_WDR50_load_scaling_factor1_proposed_eps_T18quadra_cost_bc1.03.txt"
Set parameter TimeLimit to value 3600
Gurobi Optimizer version 11.0.3 build v11.0.3rc0 (linux64 - "Ubuntu 20.04.6 LTS")

CPU model: AMD EPYC 7532 32-Core Processor, instruction set [SSE2|AVX|AVX2]
Thread count: 64 physical cores, 128 logical processors, using up to 4 threads

Academic license 2399124 - for non-commercial use only - registered to yi___@ed.ac.uk
Optimize a model with 42994 rows, 22371 columns and 986374 nonzeros
Model fingerprint: 0x3373d8b3
Model has 1800 quadratic constraints
Variable types: 20571 continuous, 1800 integer (1800 binary)
Coefficient statistics:
  Matrix range     [3e-04, 2e+03]
  QMatrix range    [2e-03, 8e-03]
  QLMatrix range   [5e-01, 6e+01]
  Objective range  [1e+00, 1e+00]
  Bounds range     [1e+00, 1e+00]
  RHS range        [1e+00, 9e+03]
Presolve removed 35146 rows and 9523 columns
Presolve time: 0.38s
Presolved: 7848 rows, 12848 columns, 44524 nonzeros
Presolved model has 1800 quadratic constraint(s)
Variable types: 11048 continuous, 1800 integer (1800 binary)

Root relaxation: objective 2.234434e+04, 6207 iterations, 0.22 seconds (0.21 work units)

    Nodes    |    Current Node    |     Objective Bounds      |     Work
 Expl Unexpl |  Obj  Depth IntInf | Incumbent    BestBd   Gap | It/Node Time

H    0     0                    531343.14978 22344.3409  95.8%     -    1s
*    0     0               0    531343.14978 22344.3409  95.8%     -    1s
     0     0 282700.879    0  507 531343.150 282700.879  46.8%     -    1s
     0     0 494332.763    0  154 531343.150 494332.763  6.97%     -    1s
     0     0 494429.333    0   54 531343.150 494429.333  6.95%     -    2s
     0     0 494429.333    0   47 531343.150 494429.333  6.95%     -    2s
     0     0 494434.580    0   47 531343.150 494434.580  6.95%     -    2s
     0     0 494434.580    0   47 531343.150 494434.580  6.95%     -    2s
     0     0 494434.589    0   47 531343.150 494434.589  6.95%     -    2s
     0     2 494434.589    0   47 531343.150 494434.589  6.95%     -    3s
    31    38 494465.867    9   32 531343.150 494437.031  6.95%  40.4    5s
H   65    66                    494437.82289 494437.031  0.00%  23.9    5s
*   65    66              21    494437.82289 494437.031  0.00%  24.4    5s

Cutting planes:
  Gomory: 38
  Lift-and-project: 18
  Implied bound: 220
  MIR: 33
  Flow cover: 173
  RLT: 225
  Relax-and-lift: 90

Explored 67 nodes (17374 simplex iterations) in 6.24 seconds (5.75 work units)
Thread count was 4 (of 128 available processors)

Solution count 3: 494438 494438 531343 

Optimal solution found (tolerance 1.00e-03)
Warning: max constraint violation (2.7748e-07) exceeds tolerance
Best objective 4.944378228913e+05, best bound 4.944370308928e+05, gap 0.0002%

Gurobi 11.0.3 (linux64) logging started Mon Aug 25 14:22:00 2025

Set parameter LogFile to value "/home/yihong/Coding/OR_SUC/SUC_epstheta_results_bigM100000_thread4/case24_ieee_rts_theta0.1_epsilon0.1_gurobi_seed40000_num_gen100_N_WDR50_load_scaling_factor1_proposed_eps_T18quadra_cost_bc1.03.txt"
Set parameter TimeLimit to value 3600
Gurobi Optimizer version 11.0.3 build v11.0.3rc0 (linux64 - "Ubuntu 20.04.6 LTS")

CPU model: AMD EPYC 7532 32-Core Processor, instruction set [SSE2|AVX|AVX2]
Thread count: 64 physical cores, 128 logical processors, using up to 4 threads

Academic license 2399124 - for non-commercial use only - registered to yi___@ed.ac.uk
Optimize a model with 42994 rows, 22372 columns and 991903 nonzeros
Model fingerprint: 0xbbddc719
Model has 1801 quadratic constraints
Variable types: 20572 continuous, 1800 integer (1800 binary)
Coefficient statistics:
  Matrix range     [3e-04, 2e+03]
  QMatrix range    [2e-03, 5e+01]
  QLMatrix range   [5e-01, 6e+01]
  Objective range  [1e+00, 1e+00]
  Bounds range     [1e-01, 1e+00]
  RHS range        [8e-01, 5e+05]
  QRHS range       [5e+00, 5e+00]
Presolve removed 31717 rows and 7811 columns
Presolve time: 0.44s
Presolved: 13079 rows, 16361 columns, 67185 nonzeros
Presolved model has 1800 quadratic constraint(s)
Presolved model has 1 bilinear constraint(s)

Solving non-convex MIQCP

Variable types: 14559 continuous, 1802 integer (1802 binary)

Root relaxation: objective 1.486298e-03, 17485 iterations, 1.52 seconds (1.75 work units)

    Nodes    |    Current Node    |     Objective Bounds      |     Work
 Expl Unexpl |  Obj  Depth IntInf | Incumbent    BestBd   Gap | It/Node Time

     0     0    0.00149    0   20          -    0.00149      -     -    2s
     0     0    0.00149    0   19          -    0.00149      -     -    3s
H    0     0                       0.0160465    0.00149  90.7%     -    3s
     0     0    0.01336    0   19    0.01605    0.01336  16.7%     -    3s
     0     0    0.01338    0   19    0.01605    0.01338  16.6%     -    4s
     0     0    0.01338    0   19    0.01605    0.01338  16.6%     -    4s
     0     0    0.01339    0   19    0.01605    0.01339  16.6%     -    4s
     0     0    0.01339    0   19    0.01605    0.01339  16.6%     -    4s
     0     0    0.01339    0   19    0.01605    0.01339  16.6%     -    4s
     0     0    0.01339    0   19    0.01605    0.01339  16.6%     -    4s
     0     0    0.01339    0   19    0.01605    0.01339  16.6%     -    4s
     0     0    0.01339    0   19    0.01605    0.01339  16.6%     -    5s
     0     0    0.01340    0   19    0.01605    0.01340  16.5%     -    5s
H    0     0                       0.0138616    0.01340  3.30%     -    7s
     0     2    0.01375    0   19    0.01386    0.01375  0.78%     -    7s
    34    14 infeasible    7         0.01386    0.01382  0.28%  63.1   10s
H   40    14                       0.0138250    0.01382  0.02%  54.5   10s
*   40    14               9       0.0138250    0.01382  0.02%  54.6   10s

Cutting planes:
  Implied bound: 20
  MIR: 11
  Flow cover: 4

Explored 41 nodes (21781 simplex iterations) in 10.24 seconds (12.64 work units)
Thread count was 4 (of 128 available processors)

Solution count 3: 0.013825 0.0138616 0.0160465 

Optimal solution found (tolerance 1.00e-03)
Best objective 1.382499988573e-02, best bound 1.382238311659e-02, gap 0.0189%
